(set-logic ALL)
(declare-const BAV1 Bool)
(declare-sort U 0)
(declare-fun x () (Array U U))
(declare-fun y () (Array U U))
(assert (= x y))
(assert (= BAV1 (= x y)))
(check-sat)
(get-model)
(get-value (x y))